38223 40644 
38762 40477 
39684 40067 
39311 40260 
38497 40580 
38671 40491 
38399 40634 
38973 40457 
40123 39762 
38106 40665 
38464 40608 
38073 40693 
36945 40979 
38600 40506 
37909 40704 
37971 40700 
37146 40955 
36575 41035 
37266 40862 
37759 40801 
37558 40825 
